mixintcount/benchmarks/random_v2l/3_3_4466.smt2
(set-logic QF_LIA)
(set-info :ran/ran2.smt2)
(set-info :smt-lib-version 2.0)
(declare-fun x1 () Int)
(declare-fun x2 () Int)
(declare-fun x3 () Int)
(assert (<= (+ (* (- 4) x1) (* 10 x2) (* 7 x3) ) (- 160)))
(assert (<= (+ (* 6 x1) (* 6 x2) (* (- 5) x3) ) 2678))
(assert (<= (+ (* (- 5) x1) (* 7 x2) (* 7 x3) ) (- 413)))
(assert (<= (+ (* 1 x1) (* (- 1) x2) (* (- 7) x3) ) 3870))
(assert (<= (+ (* 6 x1) (* (- 10) x2) (* 6 x3) ) 743))
(assert (<= (+ (* 9 x1) (* (- 2) x2) (* 5 x3) ) (- 2607)))
(assert (<= (+ (* 1 x1) (* 0 x2) (* 0 x3) ) 4466))
(assert (<= (+ (* (- 1) x1) (* 0 x2) (* 0 x3) ) 4466))
(assert (<= (+ (* 0 x1) (* 1 x2) (* 0 x3) ) 4466))
(assert (<= (+ (* 0 x1) (* (- 1) x2) (* 0 x3) ) 4466))
(assert (<= (+ (* 0 x1) (* 0 x2) (* 1 x3) ) 4466))
(assert (<= (+ (* 0 x1) (* 0 x2) (* (- 1) x3) ) 4466))
