mixintcount/benchmarks/random_v2l/3_3_4466.in
12 5
#	x1	x2	x3;		0 = Real; 1 = Integer
	1	1	1
1	-4	10	7	-160
1	6	6	-5	2678
1	-5	7	7	-413
1	1	-1	-7	3870
1	6	-10	6	743
1	9	-2	5	-2607
1	1	0	0	4466
1	-1	0	0	4466
1	0	1	0	4466
1	0	-1	0	4466
1	0	0	1	4466
1	0	0	-1	4466
